environments_harbor/cryptominisat_xor_clause_optimization_medium/environment/data/cnf_files/sample_01.cnf
c Sample CNF file 01
c This file contains XOR constraint patterns
c First XOR pattern involves variables 1, 2, 3
c Second XOR pattern involves variables 7, 8
p cnf 10 20
-1 -2 -3 0
1 2 -3 0
1 -2 3 0
-1 2 3 0
-7 -8 0
7 8 0
4 5 6 0
-4 9 0
5 -6 10 0
-5 -9 10 0
6 9 -10 0
-6 -10 0
4 -9 10 0
-4 6 -10 0
5 9 0
-5 6 9 0
4 5 -9 0
-4 -5 -6 0
9 10 0
-9 4 0